Version identifier: 22.1.0.0 | 2022-03-09 | 1a383f8ce
CPXPARAM_Threads                                 1
CPXPARAM_MIP_Strategy_VariableSelect             3
CPXPARAM_TimeLimit                               599.99502630999996
Tried aggregator 1 time.
MIP Presolve eliminated 18 rows and 0 columns.
MIP Presolve modified 1 coefficients.
Reduced MIP has 2261 rows, 5020 columns, and 53017 nonzeros.
Reduced MIP has 5020 binaries, 0 generals, 0 SOSs, and 0 indicators.
Presolve time = 0.03 sec. (24.55 ticks)
Found incumbent of value 0.000000 after 0.11 sec. (77.54 ticks)

Root node processing (before b&c):
  Real time             =    0.11 sec. (77.74 ticks)
Sequential b&c:
  Real time             =    0.00 sec. (0.00 ticks)
                          ------------
Total (root+branch&cut) =    0.11 sec. (77.74 ticks)
Version identifier: 22.1.0.0 | 2022-03-09 | 1a383f8ce
CPXPARAM_Threads                                 1
CPXPARAM_MIP_Strategy_VariableSelect             3
CPXPARAM_TimeLimit                               599.846690653
Tried aggregator 1 time.
MIP Presolve eliminated 18 rows and 0 columns.
MIP Presolve modified 1 coefficients.
Reduced MIP has 3386 rows, 7520 columns, and 79642 nonzeros.
Reduced MIP has 7520 binaries, 0 generals, 0 SOSs, and 0 indicators.
Presolve time = 0.05 sec. (36.55 ticks)
Probing time = 0.01 sec. (4.10 ticks)
Tried aggregator 1 time.
Detecting symmetries...
Reduced MIP has 3386 rows, 7520 columns, and 79642 nonzeros.
Reduced MIP has 7520 binaries, 0 generals, 0 SOSs, and 0 indicators.
Presolve time = 0.06 sec. (46.83 ticks)
Probing time = 0.01 sec. (4.10 ticks)
Clique table members: 2246.
MIP emphasis: balance optimality and feasibility.
MIP search method: dynamic search.
Parallel mode: none, using 1 thread.
Root relaxation solution time = 0.20 sec. (163.28 ticks)

        Nodes                                         Cuts/
   Node  Left     Objective  IInf  Best Integer    Best Bound    ItCnt     Gap

      0     0        0.0000   811                      0.0000     1690         
*     0+    0                            0.0000        0.0000             0.00%
      0     0        cutoff              0.0000        0.0000     1690    0.00%
Elapsed time = 1.32 sec. (993.33 ticks, tree = 0.01 MB, solutions = 1)

Root node processing (before b&c):
  Real time             =    1.32 sec. (993.56 ticks)
Sequential b&c:
  Real time             =    0.00 sec. (0.00 ticks)
                          ------------
Total (root+branch&cut) =    1.32 sec. (993.56 ticks)
Version identifier: 22.1.0.0 | 2022-03-09 | 1a383f8ce
CPXPARAM_Threads                                 1
CPXPARAM_MIP_Strategy_VariableSelect             3
CPXPARAM_TimeLimit                               598.48013543399998
Tried aggregator 1 time.
MIP Presolve eliminated 18 rows and 0 columns.
MIP Presolve modified 1 coefficients.
Reduced MIP has 3944 rows, 8760 columns, and 92848 nonzeros.
Reduced MIP has 8760 binaries, 0 generals, 0 SOSs, and 0 indicators.
Presolve time = 0.06 sec. (42.57 ticks)
Probing time = 0.01 sec. (4.37 ticks)
Tried aggregator 1 time.
Detecting symmetries...
Reduced MIP has 3944 rows, 8760 columns, and 92848 nonzeros.
Reduced MIP has 8760 binaries, 0 generals, 0 SOSs, and 0 indicators.
Presolve time = 0.07 sec. (54.60 ticks)
Probing time = 0.01 sec. (4.37 ticks)
Clique table members: 2618.
MIP emphasis: balance optimality and feasibility.
MIP search method: dynamic search.
Parallel mode: none, using 1 thread.
Root relaxation solution time = 0.43 sec. (370.68 ticks)

        Nodes                                         Cuts/
   Node  Left     Objective  IInf  Best Integer    Best Bound    ItCnt     Gap

      0     0        0.0000  1245                      0.0000     2824         
*     0+    0                            0.0000        0.0000             0.00%
      0     0        cutoff              0.0000        0.0000     2824    0.00%
Elapsed time = 2.66 sec. (2313.43 ticks, tree = 0.01 MB, solutions = 1)

Root node processing (before b&c):
  Real time             =    2.66 sec. (2313.70 ticks)
Sequential b&c:
  Real time             =    0.00 sec. (0.00 ticks)
                          ------------
Total (root+branch&cut) =    2.66 sec. (2313.70 ticks)
Version identifier: 22.1.0.0 | 2022-03-09 | 1a383f8ce
CPXPARAM_Threads                                 1
CPXPARAM_MIP_Strategy_VariableSelect             3
CPXPARAM_TimeLimit                               595.76473779499997
Tried aggregator 1 time.
MIP Presolve eliminated 18 rows and 0 columns.
MIP Presolve modified 1 coefficients.
Reduced MIP has 4223 rows, 9380 columns, and 99451 nonzeros.
Reduced MIP has 9380 binaries, 0 generals, 0 SOSs, and 0 indicators.
Presolve time = 0.06 sec. (45.48 ticks)
Probing time = 0.01 sec. (4.51 ticks)
Tried aggregator 1 time.
Detecting symmetries...
Reduced MIP has 4223 rows, 9380 columns, and 99451 nonzeros.
Reduced MIP has 9380 binaries, 0 generals, 0 SOSs, and 0 indicators.
Presolve time = 0.07 sec. (58.36 ticks)
Probing time = 0.01 sec. (4.51 ticks)
Clique table members: 2804.
MIP emphasis: balance optimality and feasibility.
MIP search method: dynamic search.
Parallel mode: none, using 1 thread.
Root relaxation solution time = 0.78 sec. (687.35 ticks)

        Nodes                                         Cuts/
   Node  Left     Objective  IInf  Best Integer    Best Bound    ItCnt     Gap

      0     0        0.0000  1474                      0.0000     3729         
*     0+    0                            0.0000        0.0000             0.00%
      0     0        cutoff              0.0000        0.0000     3729    0.00%
Elapsed time = 5.08 sec. (4296.53 ticks, tree = 0.01 MB, solutions = 1)

Root node processing (before b&c):
  Real time             =    5.09 sec. (4296.82 ticks)
Sequential b&c:
  Real time             =    0.00 sec. (0.00 ticks)
                          ------------
Total (root+branch&cut) =    5.09 sec. (4296.82 ticks)
Version identifier: 22.1.0.0 | 2022-03-09 | 1a383f8ce
CPXPARAM_Threads                                 1
CPXPARAM_MIP_Strategy_VariableSelect             3
CPXPARAM_TimeLimit                               590.61982449899995
Tried aggregator 1 time.
MIP Presolve eliminated 18 rows and 0 columns.
MIP Presolve modified 1 coefficients.
Reduced MIP has 4367 rows, 9700 columns, and 102859 nonzeros.
Reduced MIP has 9700 binaries, 0 generals, 0 SOSs, and 0 indicators.
Presolve time = 0.06 sec. (47.09 ticks)
Probing time = 0.01 sec. (4.58 ticks)
Tried aggregator 1 time.
Detecting symmetries...
Reduced MIP has 4367 rows, 9700 columns, and 102859 nonzeros.
Reduced MIP has 9700 binaries, 0 generals, 0 SOSs, and 0 indicators.
Presolve time = 0.08 sec. (60.42 ticks)
Probing time = 0.01 sec. (4.58 ticks)
Clique table members: 2900.
MIP emphasis: balance optimality and feasibility.
MIP search method: dynamic search.
Parallel mode: none, using 1 thread.
Root relaxation solution time = 2.15 sec. (1901.27 ticks)

        Nodes                                         Cuts/
   Node  Left     Objective  IInf  Best Integer    Best Bound    ItCnt     Gap

      0     0        0.0000  1899                      0.0000     6323         
      0     0        0.0000   181                  Cliques: 6     6721         
      0     0        0.0000   419                   Cuts: 114     9209         
*     0+    0                            0.0000        0.0000             0.00%
      0     0        cutoff              0.0000        0.0000     9209    0.00%
Elapsed time = 23.66 sec. (19712.45 ticks, tree = 0.01 MB, solutions = 1)

Clique cuts applied:  22
Zero-half cuts applied:  27
Lift and project cuts applied:  4
Gomory fractional cuts applied:  8

Root node processing (before b&c):
  Real time             =   23.67 sec. (19713.12 ticks)
Sequential b&c:
  Real time             =    0.00 sec. (0.00 ticks)
                          ------------
Total (root+branch&cut) =   23.67 sec. (19713.12 ticks)
Version identifier: 22.1.0.0 | 2022-03-09 | 1a383f8ce
CPXPARAM_Threads                                 1
CPXPARAM_MIP_Strategy_VariableSelect             3
CPXPARAM_TimeLimit                               566.89321368800006
Tried aggregator 1 time.
MIP Presolve eliminated 18 rows and 0 columns.
MIP Presolve modified 1 coefficients.
Reduced MIP has 4439 rows, 9860 columns, and 104563 nonzeros.
Reduced MIP has 9860 binaries, 0 generals, 0 SOSs, and 0 indicators.
Presolve time = 0.06 sec. (47.77 ticks)
Probing time = 0.01 sec. (4.61 ticks)
Tried aggregator 1 time.
Detecting symmetries...
Reduced MIP has 4439 rows, 9860 columns, and 104563 nonzeros.
Reduced MIP has 9860 binaries, 0 generals, 0 SOSs, and 0 indicators.
Presolve time = 0.08 sec. (61.33 ticks)
Probing time = 0.01 sec. (4.61 ticks)
Clique table members: 2948.
MIP emphasis: balance optimality and feasibility.
MIP search method: dynamic search.
Parallel mode: none, using 1 thread.
Root relaxation solution time = 3.83 sec. (3416.44 ticks)

        Nodes                                         Cuts/
   Node  Left     Objective  IInf  Best Integer    Best Bound    ItCnt     Gap

      0     0        0.0000  2097                      0.0000     9314         
      0     0        0.0000   108                     Cuts: 5    10634         
      0     0        0.0000   412                    Cuts: 93    13421         
*     0+    0                            0.0000        0.0000             0.00%
      0     0        cutoff              0.0000        0.0000    13421    0.00%
Elapsed time = 52.61 sec. (51089.73 ticks, tree = 0.01 MB, solutions = 1)

Clique cuts applied:  17
Zero-half cuts applied:  17
Lift and project cuts applied:  4
Gomory fractional cuts applied:  6

Root node processing (before b&c):
  Real time             =   52.61 sec. (51090.40 ticks)
Sequential b&c:
  Real time             =    0.00 sec. (0.00 ticks)
                          ------------
Total (root+branch&cut) =   52.61 sec. (51090.40 ticks)
Version identifier: 22.1.0.0 | 2022-03-09 | 1a383f8ce
CPXPARAM_Threads                                 1
CPXPARAM_MIP_Strategy_VariableSelect             3
CPXPARAM_TimeLimit                               514.22123721599996
Tried aggregator 1 time.
MIP Presolve eliminated 18 rows and 0 columns.
MIP Presolve modified 1 coefficients.
Reduced MIP has 4475 rows, 9940 columns, and 105415 nonzeros.
Reduced MIP has 9940 binaries, 0 generals, 0 SOSs, and 0 indicators.
Presolve time = 0.06 sec. (48.24 ticks)
Probing time = 0.01 sec. (4.62 ticks)
Tried aggregator 1 time.
Detecting symmetries...
Reduced MIP has 4475 rows, 9940 columns, and 105415 nonzeros.
Reduced MIP has 9940 binaries, 0 generals, 0 SOSs, and 0 indicators.
Presolve time = 0.08 sec. (61.91 ticks)
Probing time = 0.01 sec. (4.62 ticks)
Clique table members: 2972.
MIP emphasis: balance optimality and feasibility.
MIP search method: dynamic search.
Parallel mode: none, using 1 thread.
Root relaxation solution time = 3.69 sec. (3277.91 ticks)

        Nodes                                         Cuts/
   Node  Left     Objective  IInf  Best Integer    Best Bound    ItCnt     Gap

      0     0        0.0000  2107                      0.0000     8860         
      0     0        0.0000   280                     Cuts: 9    10348         
      0     0        0.0000   628                   Cuts: 157    16392         
*     0+    0                            0.0000        0.0000             0.00%
      0     0        cutoff              0.0000        0.0000    16392    0.00%
Elapsed time = 59.17 sec. (56936.47 ticks, tree = 0.01 MB, solutions = 1)

Clique cuts applied:  39
Zero-half cuts applied:  39
Lift and project cuts applied:  3
Gomory fractional cuts applied:  17

Root node processing (before b&c):
  Real time             =   59.17 sec. (56937.17 ticks)
Sequential b&c:
  Real time             =    0.00 sec. (0.00 ticks)
                          ------------
Total (root+branch&cut) =   59.17 sec. (56937.17 ticks)
Version identifier: 22.1.0.0 | 2022-03-09 | 1a383f8ce
CPXPARAM_Threads                                 1
CPXPARAM_MIP_Strategy_VariableSelect             3
CPXPARAM_TimeLimit                               454.98451110799999
Tried aggregator 1 time.
MIP Presolve eliminated 18 rows and 0 columns.
MIP Presolve modified 1 coefficients.
Reduced MIP has 4493 rows, 9980 columns, and 105841 nonzeros.
Reduced MIP has 9980 binaries, 0 generals, 0 SOSs, and 0 indicators.
Presolve time = 0.06 sec. (48.35 ticks)
Probing time = 0.01 sec. (4.63 ticks)
Tried aggregator 1 time.
Detecting symmetries...
Reduced MIP has 4493 rows, 9980 columns, and 105841 nonzeros.
Reduced MIP has 9980 binaries, 0 generals, 0 SOSs, and 0 indicators.
Presolve time = 0.08 sec. (62.07 ticks)
Probing time = 0.01 sec. (4.63 ticks)
Clique table members: 2984.
MIP emphasis: balance optimality and feasibility.
MIP search method: dynamic search.
Parallel mode: none, using 1 thread.
Root relaxation solution time = 4.64 sec. (4235.83 ticks)

        Nodes                                         Cuts/
   Node  Left     Objective  IInf  Best Integer    Best Bound    ItCnt     Gap

      0     0        0.0000  2242                      0.0000    10294         
      0     0        0.0000   180                  Cliques: 4    11493         
      0     0        0.0000   539                    Cuts: 87    17275         
*     0+    0                            0.0000        0.0000             0.00%
      0     0        cutoff              0.0000        0.0000    17275    0.00%
Elapsed time = 64.57 sec. (58090.65 ticks, tree = 0.01 MB, solutions = 1)

Clique cuts applied:  8
Zero-half cuts applied:  25
Lift and project cuts applied:  1
Gomory fractional cuts applied:  1

Root node processing (before b&c):
  Real time             =   64.58 sec. (58091.33 ticks)
Sequential b&c:
  Real time             =    0.00 sec. (0.00 ticks)
                          ------------
Total (root+branch&cut) =   64.58 sec. (58091.33 ticks)
Version identifier: 22.1.0.0 | 2022-03-09 | 1a383f8ce
CPXPARAM_Threads                                 1
CPXPARAM_MIP_Strategy_VariableSelect             3
CPXPARAM_TimeLimit                               390.34553050299996
Tried aggregator 1 time.
MIP Presolve eliminated 18 rows and 0 columns.
MIP Presolve modified 1 coefficients.
Reduced MIP has 4502 rows, 10000 columns, and 106054 nonzeros.
Reduced MIP has 10000 binaries, 0 generals, 0 SOSs, and 0 indicators.
Presolve time = 0.06 sec. (48.53 ticks)
Probing time = 0.01 sec. (4.63 ticks)
Tried aggregator 1 time.
Detecting symmetries...
Reduced MIP has 4502 rows, 10000 columns, and 106054 nonzeros.
Reduced MIP has 10000 binaries, 0 generals, 0 SOSs, and 0 indicators.
Presolve time = 0.08 sec. (62.29 ticks)
Probing time = 0.01 sec. (4.63 ticks)
Clique table members: 2990.
MIP emphasis: balance optimality and feasibility.
MIP search method: dynamic search.
Parallel mode: none, using 1 thread.
Root relaxation solution time = 5.87 sec. (5366.47 ticks)

        Nodes                                         Cuts/
   Node  Left     Objective  IInf  Best Integer    Best Bound    ItCnt     Gap

      0     0        0.0000  2314                      0.0000    11655         
      0     2        0.0000   119                      0.0000    11655         
Elapsed time = 38.89 sec. (34317.77 ticks, tree = 0.01 MB, solutions = 0)
      1     3        0.0000   148                      0.0000    35859         
      2     4        0.0000   206                      0.0000    39356         
      3     5        0.0000   481                      0.0000    51020         
      4     6        0.0000   267                      0.0000    58481         
      5     7        0.0000   253                      0.0000    61320         
      6     8        0.0000   359                      0.0000    67350         
      7     9        0.0000   289                      0.0000    81475         
      8    10        0.0000   620                      0.0000    97688         
      9    11        0.0000   976                      0.0000   113662         
     11    13        0.0000   609                      0.0000   117897         
Elapsed time = 93.09 sec. (82466.70 ticks, tree = 0.08 MB, solutions = 0)
     14    16        0.0000   620                      0.0000   119665         
     16    18        0.0000   859                      0.0000   123839         
     18    20        0.0000   571                      0.0000   125427         
     19    21        0.0000   680                      0.0000   133376         
     20    22        0.0000   572                      0.0000   133405         
     23    25        0.0000   565                      0.0000   134900         
     24    26        0.0000   598                      0.0000   138589         
     26    28        0.0000   551                      0.0000   142190         
     27    29        0.0000   681                      0.0000   150380         
     29    31        0.0000  1206                      0.0000   160674         
Elapsed time = 125.81 sec. (110433.56 ticks, tree = 0.14 MB, solutions = 0)
     30    32        0.0000   548                      0.0000   160815         
     32    34        0.0000   518                      0.0000   165110         
     34    36        0.0000   628                      0.0000   175125         
     37    39        0.0000   418                      0.0000   176401         
     39    41        0.0000   417                      0.0000   180126         
     40    42        0.0000   431                      0.0000   185281         
     43    45        0.0000   415                      0.0000   187311         
     45    47        0.0000   428                      0.0000   190635         
     48    50        0.0000   401                      0.0000   192783         
     51    53        0.0000   424                      0.0000   199135         
Elapsed time = 142.88 sec. (124561.91 ticks, tree = 0.23 MB, solutions = 0)
     54    56        0.0000   380                      0.0000   203670         
     55    57        0.0000   514                      0.0000   215584         
     59    61        0.0000   367                      0.0000   216501         
     60    62        0.0000   363                      0.0000   216882         
     64    66        0.0000   342                      0.0000   218060         
     68    70        0.0000   322                      0.0000   220288         
     73    75        0.0000   334                      0.0000   221322         
     78    80        0.0000   320                      0.0000   221666         
     80    82        0.0000   315                      0.0000   221758         
     85    87        0.0000   322                      0.0000   222350         
Elapsed time = 159.49 sec. (138167.49 ticks, tree = 0.37 MB, solutions = 0)
     89    91        0.0000   305                      0.0000   224763         
     94    96        0.0000   276                      0.0000   227284         
     97    99        0.0000   226                      0.0000   233569         
    101   103        0.0000   228                      0.0000   236025         
    106   108        0.0000   215                      0.0000   236549         
    108   110        0.0000   265                      0.0000   240695         
    112   114        0.0000   233                      0.0000   242317         
    117   119        0.0000   224                      0.0000   246104         
    121   123        0.0000   209                      0.0000   246861         
    126   128        0.0000   210                      0.0000   247003         
Elapsed time = 172.40 sec. (149533.77 ticks, tree = 0.55 MB, solutions = 0)
    131   133        0.0000   206                      0.0000   247313         
    134   136        0.0000   263                      0.0000   254117         
    138   140        0.0000   249                      0.0000   258391         
    142   144        0.0000   208                      0.0000   258523         
    147   149        0.0000   199                      0.0000   259144         
    151   153        0.0000   207                      0.0000   262548         
    154   156        0.0000   243                      0.0000   266648         
    156   158        0.0000   283                      0.0000   273494         
    159   161        0.0000   193                      0.0000   276345         
    161   163        0.0000   206                      0.0000   280150         
Elapsed time = 184.80 sec. (160842.54 ticks, tree = 0.71 MB, solutions = 0)
    162   164        0.0000   257                      0.0000   287867         
    167   169        0.0000   198                      0.0000   288251         
    169   171        0.0000   233                      0.0000   293589         
    172   174        0.0000   201                      0.0000   296735         
    177   179        0.0000   245                      0.0000   301550         
    179   181        0.0000   240                      0.0000   306421         
    180   182        0.0000   196                      0.0000   306425         
    185   187        0.0000   186                      0.0000   306686         
    186   188        0.0000   178                      0.0000   312545         
    189   191        0.0000   305                      0.0000   318634         
Elapsed time = 200.18 sec. (174852.27 ticks, tree = 0.83 MB, solutions = 0)
    192   194        0.0000   190                      0.0000   319930         
    194   196        0.0000   234                      0.0000   324504         
    196   198        0.0000   294                      0.0000   330589         
    198   200        0.0000   352                      0.0000   344686         
    199   201        0.0000   610                      0.0000   352336         
    202   204        0.0000   414                      0.0000   359958         
    205   207        0.0000   475                      0.0000   370534         
    207   209        0.0000   567                      0.0000   381250         
    209   211        0.0000   905                      0.0000   397429         
    212   214        0.0000   434                      0.0000   400314         
Elapsed time = 223.57 sec. (194621.91 ticks, tree = 0.93 MB, solutions = 0)
    215   217        0.0000   388                      0.0000   407736         
    219   221        0.0000   373                      0.0000   408814         
    222   224        0.0000   342                      0.0000   411719         
    224   226        0.0000   482                      0.0000   447978         
    226   228        0.0000   309                      0.0000   449060         
    228   230        0.0000   413                      0.0000   460823         
    230   232        0.0000   389                      0.0000   466894         
    232   234        0.0000   372                      0.0000   490272         
    235   237        0.0000   311                      0.0000   490842         
    238   240        0.0000   309                      0.0000   491257         
Elapsed time = 255.32 sec. (220189.60 ticks, tree = 1.49 MB, solutions = 0)
    240   242        0.0000   300                      0.0000   491935         
    243   245        0.0000   284                      0.0000   494674         
    245   247        0.0000   300                      0.0000   519700         
    246   248        0.0000   267                      0.0000   524673         
    247   249        0.0000   275                      0.0000   529014         
    249   251        0.0000   256                      0.0000   532239         
    251   253        0.0000   191                      0.0000   535551         
    255   257        0.0000   182                      0.0000   536047         
    256   258        0.0000   161                      0.0000   541187         
    262   262    infeasible                            0.0000   573673         
Elapsed time = 289.75 sec. (248953.37 ticks, tree = 2.40 MB, solutions = 0)
    264   264        0.0000   246                      0.0000   584568         
    266   264    infeasible                            0.0000   611604         
    268   266        0.0000   361                      0.0000   622416         
    272   270        0.0000   354                      0.0000   639191         
    280   276        0.0000   159                      0.0000   651497         
    289   283    infeasible                            0.0000   676095         
    297   287        0.0000   176                      0.0000   702646         
    302   290        0.0000   242                      0.0000   723510         
    304   292        0.0000   323                      0.0000   735079         
    309   295        0.0000   181                      0.0000   743956         
Elapsed time = 350.31 sec. (299764.10 ticks, tree = 3.40 MB, solutions = 0)
    316   300        0.0000   167                      0.0000   754951         
    325   307        0.0000   128                      0.0000   768368         
    340   322        0.0000   172                      0.0000   779700         

Root node processing (before b&c):
  Real time             =   38.81 sec. (34265.86 ticks)
Sequential b&c:
  Real time             =  351.54 sec. (299357.82 ticks)
                          ------------
Total (root+branch&cut) =  390.35 sec. (333623.68 ticks)
Primal:	499
Dual:	499
Status:	Optimal
Time:	600.053
Sequence:
	15
	0
	7
	14
	8
	1
	14
	9
	1
	14
	8
	18
	5
	9
	18
	5
	8
	13
	12
	11
	13
	12
	9
	18
	12
	9
	13
	12
	11
	13
	5
	11
	18
	5
	9
	18
	5
	8
	13
	12
	11
	13
	5
	8
	13
	5
	11
	18
	5
	11
	13
	5
	9
	18
	2
	14
	9
	1
	14
	8
	18
	5
	9
	13
	12
	9
	2
	17
	19
	0
	10
	19
	0
	17
	8
	16
	17
	11
	6
	10
	9
	2
	10
	3
	4
	14
	1
	8
	14
	1
	8
	5
	16
	9
	17
	2
	19
	17
	0
	19
	12
	1
	9
	14
	1
	8
	14
	1
	9
	14
	1
	11
	14
	1
	9
	14
	1
	11
	5
	18
	9
	12
	13
	11
	5
	6
	2
	15
	6
	7
	15
	16
	0
	15
	0
	7
	15
	16
	7
	15
	0
	2
	15
	6
	7
	17
	19
	2
	17
	19
	0
	17
	19
	2
	17
	19
	0
	10
	4
	7
	10
	9
	2
	10
	3
	4
	17
	3
	4
	18
	14
	4
	18
	5
	8
	13
	5
	11
	13
	5
	11
	13
	12
	11
	13
	12
	9
	13
	5
	11
	13
	12
	11
	13
	5
	8
	13
	12
	8
	13
	12
	3
	18
	14
	7
	8
	1
	14
	8
	1
	14
	4
	3
	10
	16
	7
	15
	0
	2
	15
	6
	7
	15
	16
	7
	15
	7
	16
	15
	0
	0
	15
	16
	7
	15
	7
	16
	17
	11
	2
	17
	19
	0
	10
	19
	0
	17
	19
	0
	10
	8
	6
	17
	8
	16
	10
	4
	3
	10
	2
	9
	17
	16
	8
	17
	7
	9
	14
	1
	8
	14
	1
	9
	14
	1
	11
	16
	17
	4
	3
	10
	16
	3
	17
	4
	3
	10
	2
	19
	17
	7
	11
	10
	7
	9
	10
	2
	9
	10
	7
	6
	15
	2
	0
	15
	7
	16
	15
	0
	7
	15
	6
	2
	15
	6
	7
	15
	2
	16
	17
	3
	4
	10
	0
	6
	15
	0
	16
	15
	7
	0
	12
	19
	18
	5
	9
	1
	14
	7
	8
	14
	1
	11
	5
	18
	8
	5
	16
	3
	10
	4
	3
	10
	4
	3
	10
	2
	19
	17
	7
	19
	17
	7
	19
	18
	5
	8
	13
	5
	11
	13
	12
	9
	13
	12
	8
	13
	5
	8
	18
	5
	9
	16
	17
	8
	16
	17
	4
	3
	10
	4
	3
	10
	4
	16
	10
	4
	3
	10
	4
	7
	5
	19
	18
	5
	2
	6
	15
	0
	16
	15
	7
	6
	15
	7
	7
	15
	0
	16
	15
	0
	6
	15
	7
	2
	15
	6
	7
	15
	0
	16
	15
	0
	16
	17
	11
	16
	17
	9
	2
	18
	14
	4
	3
	14
	1
	11
	14
	1
	9
	14
	1
	11
	14
	1
	8
	5
	18
	9
	12
	18
	4
	14
	3
	18
	14
	3
	18
	5
	19
	18
	5
	11
	1
	12
	9
	18
	5
	9
	18
	5
	19
	18
	5
	9
	1
	14
	8
	18
	5
	9
	13
	5
	11
	1
	14
	9
	2
	10
